
Gurobi 6.5.0 (linux64) logging started Wed May 11 22:52:12 2016


Gurobi 6.5.0 (linux64) logging started Mon May 23 22:21:56 2016


Gurobi 6.5.0 (linux64) logging started Mon May 23 22:22:08 2016


Gurobi 6.5.0 (linux64) logging started Mon May 23 22:22:50 2016

